plugin load chromatin.so

variable I world A B C D E F G H I J K L M N O P
variable a world 8.00 8.34 8.70 9.07 9.46 9.86 10.29 10.73 11.19 11.67 12.16 12.69 13.23 13.79 14.38 15.00
variable l equal 1.0/${a}
variable Q equal 3.5*${a}

# Initialization
units		real
atom_style   hybrid ellipsoid angle charge

boundary s s s

log log.temper.${I}.txt
read_data nucl_nonb.txt

set type 1 mass 71.08
set type 2 mass 156.2
set type 3 mass 114.1
set type 4 mass 115.1
set type 5 mass 103.1
set type 6 mass 128.1
set type 7 mass 129.1
set type 8 mass 57.05
set type 9 mass 137.1
set type 10 mass 113.2
set type 11 mass 113.2
set type 12 mass 128.2
set type 13 mass 131.2
set type 14 mass 147.2
set type 15 mass 97.12
set type 16 mass 87.08
set type 17 mass 101.1
set type 18 mass 186.2
set type 19 mass 163.2
set type 20 mass 99.07
set type 21 mass 71.08
set type 22 mass 156.2
set type 23 mass 114.1
set type 24 mass 115.1
set type 25 mass 103.1
set type 26 mass 128.1
set type 27 mass 129.1
set type 28 mass 57.05
set type 29 mass 137.1
set type 30 mass 113.2
set type 31 mass 113.2
set type 32 mass 128.2
set type 33 mass 131.2
set type 34 mass 147.2
set type 35 mass 97.12
set type 36 mass 87.08
set type 37 mass 101.1
set type 38 mass 186.2
set type 39 mass 163.2
set type 40 mass 99.07
set type 41 mass 650.0
set type 42 mass 0.000001
pair_style ljlambda $l 20.34 $Q
dielectric  80.0

bond_style hybrid harmonic harmonic/DNA zero

bond_coeff 1 harmonic 10.0 3.8
bond_coeff 2 harmonic/DNA 0.0 0.0
bond_coeff 3 zero
bond_coeff 4 harmonic 10.0 3.6736674573102004
bond_coeff 5 harmonic 10.0 6.461350630935378
bond_coeff 6 harmonic 10.0 6.662297813284843
bond_coeff 7 harmonic 10.0 6.977606013784382
bond_coeff 8 harmonic 10.0 4.806278787234988
bond_coeff 9 harmonic 10.0 6.847231422854131
bond_coeff 10 harmonic 10.0 7.209718730963087
bond_coeff 11 harmonic 10.0 5.122934686329701
bond_coeff 12 harmonic 10.0 4.00825999448252
bond_coeff 13 harmonic 10.0 6.242473515604611
bond_coeff 14 harmonic 10.0 5.663409115541629
bond_coeff 15 harmonic 10.0 7.152271602087342
bond_coeff 16 harmonic 10.0 6.9148512647895055
bond_coeff 17 harmonic 10.0 4.041416546571264
bond_coeff 18 harmonic 10.0 7.016541978246834
bond_coeff 19 harmonic 10.0 3.680662278580307
bond_coeff 20 harmonic 10.0 5.693240105859667
bond_coeff 21 harmonic 10.0 7.317466500813585
bond_coeff 22 harmonic 10.0 7.486070733665891
bond_coeff 23 harmonic 10.0 7.435143795979268
bond_coeff 24 harmonic 10.0 4.964883517289103
bond_coeff 25 harmonic 10.0 4.365857786411394
bond_coeff 26 harmonic 10.0 6.752207210458594
bond_coeff 27 harmonic 10.0 3.8033143650012677
bond_coeff 28 harmonic 10.0 5.710188755919107
bond_coeff 29 harmonic 10.0 4.639643431905624
bond_coeff 30 harmonic 10.0 5.934341285317606
bond_coeff 31 harmonic 10.0 6.232760716073177
bond_coeff 32 harmonic 10.0 6.968253123826372
bond_coeff 33 harmonic 10.0 4.139879697337229
bond_coeff 34 harmonic 10.0 3.703850603642107
bond_coeff 35 harmonic 10.0 4.99628002306716
bond_coeff 36 harmonic 10.0 4.966740316434915
bond_coeff 37 harmonic 10.0 6.676296604772739
bond_coeff 38 harmonic 10.0 7.346133516816856
bond_coeff 39 harmonic 10.0 7.106756826356241
bond_coeff 40 harmonic 10.0 7.158060201227704
bond_coeff 41 harmonic 10.0 3.752189973122363
bond_coeff 42 harmonic 10.0 5.2566033802827485
bond_coeff 43 harmonic 10.0 5.242048511755686
bond_coeff 44 harmonic 10.0 6.083365749065234
bond_coeff 45 harmonic 10.0 7.155174664010656
bond_coeff 46 harmonic 10.0 5.763554287208547
bond_coeff 47 harmonic 10.0 3.700292370826933
bond_coeff 48 harmonic 10.0 5.7252905103234735
bond_coeff 49 harmonic 10.0 4.782236338001293
bond_coeff 50 harmonic 10.0 6.161731939552387
bond_coeff 51 harmonic 10.0 6.096787030731844
bond_coeff 52 harmonic 10.0 5.991534489594465
bond_coeff 53 harmonic 10.0 5.591671666979384
bond_coeff 54 harmonic 10.0 4.024154523623567
bond_coeff 55 harmonic 10.0 5.177225990054907
bond_coeff 56 harmonic 10.0 5.136143598547455
bond_coeff 57 harmonic 10.0 6.329911411236337
bond_coeff 58 harmonic 10.0 6.366890342207881
bond_coeff 59 harmonic 10.0 6.150545677620806
bond_coeff 60 harmonic 10.0 2.6361437148987146
bond_coeff 61 harmonic 10.0 5.404446299196614
bond_coeff 62 harmonic 10.0 4.077942140357073
bond_coeff 63 harmonic 10.0 5.809702979404371
bond_coeff 64 harmonic 10.0 5.1610433404593685
bond_coeff 65 harmonic 10.0 6.124972847458182
bond_coeff 66 harmonic 10.0 6.869227271862535
bond_coeff 67 harmonic 10.0 4.251943433725337
bond_coeff 68 harmonic 10.0 6.868175899385513
bond_coeff 69 harmonic 10.0 4.628097615014184
bond_coeff 70 harmonic 10.0 3.7871153616440036
bond_coeff 71 harmonic 10.0 5.53315570447823
bond_coeff 72 harmonic 10.0 5.209303367053985
bond_coeff 73 harmonic 10.0 6.425860725225842
bond_coeff 74 harmonic 10.0 7.067656258796121
bond_coeff 75 harmonic 10.0 6.4230047788865905
bond_coeff 76 harmonic 10.0 5.583675612219965
bond_coeff 77 harmonic 10.0 3.99320215471243
bond_coeff 78 harmonic 10.0 5.405423684448795
bond_coeff 79 harmonic 10.0 5.334575112827637
bond_coeff 80 harmonic 10.0 5.896200689291367
bond_coeff 81 harmonic 10.0 7.209838592090671
bond_coeff 82 harmonic 10.0 4.635903303445834
bond_coeff 83 harmonic 10.0 5.573968450655241
bond_coeff 84 harmonic 10.0 6.108935326634256
bond_coeff 85 harmonic 10.0 7.434728541009417
bond_coeff 86 harmonic 10.0 7.315890337067664
bond_coeff 87 harmonic 10.0 7.146876135739306
bond_coeff 88 harmonic 10.0 3.111239251873761
bond_coeff 89 harmonic 10.0 4.203312378696117
bond_coeff 90 harmonic 10.0 3.6316564760450567
bond_coeff 91 harmonic 10.0 5.705696200289672
bond_coeff 92 harmonic 10.0 5.043624956318619
bond_coeff 93 harmonic 10.0 6.463392664073565
bond_coeff 94 harmonic 10.0 5.581485441349821
bond_coeff 95 harmonic 10.0 3.01340836455997
bond_coeff 96 harmonic 10.0 4.2237723106838985
bond_coeff 97 harmonic 10.0 6.467575651076685
bond_coeff 98 harmonic 10.0 7.15361497496196
bond_coeff 99 harmonic 10.0 3.9182323782542565
bond_coeff 100 harmonic 10.0 5.688533492913617
bond_coeff 101 harmonic 10.0 5.711226257993987
bond_coeff 102 harmonic 10.0 6.479100293250601
bond_coeff 103 harmonic 10.0 5.958004824737891
bond_coeff 104 harmonic 10.0 7.200789397871597
bond_coeff 105 harmonic 10.0 4.206913725048327
bond_coeff 106 harmonic 10.0 5.508758856584666
bond_coeff 107 harmonic 10.0 5.275979431347322
bond_coeff 108 harmonic 10.0 6.965024997801516
bond_coeff 109 harmonic 10.0 6.759977265760588
bond_coeff 110 harmonic 10.0 7.114534074758515
bond_coeff 111 harmonic 10.0 6.9310685743613885
bond_coeff 112 harmonic 10.0 5.095701283680196
bond_coeff 113 harmonic 10.0 6.219829283316384
bond_coeff 114 harmonic 10.0 3.9283600891466137
bond_coeff 115 harmonic 10.0 6.094876426146802
bond_coeff 116 harmonic 10.0 4.838054364359706
bond_coeff 117 harmonic 10.0 7.2847164360529515
bond_coeff 118 harmonic 10.0 7.434391471384864
bond_coeff 119 harmonic 10.0 7.496554117786385
bond_coeff 120 harmonic 10.0 5.8951771766758645
bond_coeff 121 harmonic 10.0 6.765143837266138
bond_coeff 122 harmonic 10.0 5.569430214698809
bond_coeff 123 harmonic 10.0 4.871488736310493
bond_coeff 124 harmonic 10.0 4.506182500920264
bond_coeff 125 harmonic 10.0 3.601644227293974
bond_coeff 126 harmonic 10.0 6.264870900505454
bond_coeff 127 harmonic 10.0 7.248243242772692
bond_coeff 128 harmonic 10.0 7.240256908901784
bond_coeff 129 harmonic 10.0 6.556279054341724
bond_coeff 130 harmonic 10.0 7.1640264054510565
bond_coeff 131 harmonic 10.0 3.6794637951745095
bond_coeff 132 harmonic 10.0 6.111075410277637
bond_coeff 133 harmonic 10.0 6.996493799532734
bond_coeff 134 harmonic 10.0 3.631484704924419
bond_coeff 135 harmonic 10.0 6.654466694101038
bond_coeff 136 harmonic 10.0 6.138416464928067
bond_coeff 137 harmonic 10.0 6.786762183464218
bond_coeff 138 harmonic 10.0 4.501050803190294
bond_coeff 139 harmonic 10.0 7.383290428149227
bond_coeff 140 harmonic 10.0 3.686056170814547
bond_coeff 141 harmonic 10.0 5.7049515693299275
bond_coeff 142 harmonic 10.0 6.954298443121347
bond_coeff 143 harmonic 10.0 7.131149958807485
bond_coeff 144 harmonic 10.0 7.367140995128302
bond_coeff 145 harmonic 10.0 3.728056458209828
bond_coeff 146 harmonic 10.0 5.864479862698823
bond_coeff 147 harmonic 10.0 7.322009726058823
bond_coeff 148 harmonic 10.0 7.484021271382117
bond_coeff 149 harmonic 10.0 3.535282644938026
bond_coeff 150 harmonic 10.0 6.536845880640679
bond_coeff 151 harmonic 10.0 5.8669016448292375
bond_coeff 152 harmonic 10.0 6.743033943381866
bond_coeff 153 harmonic 10.0 3.369052422401438
bond_coeff 154 harmonic 10.0 6.588444309577184
bond_coeff 155 harmonic 10.0 7.453425228208839
bond_coeff 156 harmonic 10.0 6.959710189971994
bond_coeff 157 harmonic 10.0 5.7830387749435
bond_coeff 158 harmonic 10.0 3.9813995792898003
bond_coeff 159 harmonic 10.0 5.818964668221401
bond_coeff 160 harmonic 10.0 5.243825909113402
bond_coeff 161 harmonic 10.0 5.981156203786105
bond_coeff 162 harmonic 10.0 7.241885813019217
bond_coeff 163 harmonic 10.0 5.5134944701821365
bond_coeff 164 harmonic 10.0 3.5820783891618007
bond_coeff 165 harmonic 10.0 5.258616203042394
bond_coeff 166 harmonic 10.0 4.924610194817453
bond_coeff 167 harmonic 10.0 6.205301692133912
bond_coeff 168 harmonic 10.0 5.284304804617162
bond_coeff 169 harmonic 10.0 7.246654649981606
bond_coeff 170 harmonic 10.0 3.6218074118318335
bond_coeff 171 harmonic 10.0 5.205717420144891
bond_coeff 172 harmonic 10.0 5.193106138343408
bond_coeff 173 harmonic 10.0 6.4903000385190195
bond_coeff 174 harmonic 10.0 4.517180537503457
bond_coeff 175 harmonic 10.0 3.8695142886414047
bond_coeff 176 harmonic 10.0 5.619997379011845
bond_coeff 177 harmonic 10.0 5.117571579020659
bond_coeff 178 harmonic 10.0 6.456370461497698
bond_coeff 179 harmonic 10.0 6.308282612732248
bond_coeff 180 harmonic 10.0 6.459582159311853
bond_coeff 181 harmonic 10.0 6.300023766113904
bond_coeff 182 harmonic 10.0 3.7656834784803674
bond_coeff 183 harmonic 10.0 5.300323365267443
bond_coeff 184 harmonic 10.0 5.101780720111361
bond_coeff 185 harmonic 10.0 6.136404602281371
bond_coeff 186 harmonic 10.0 7.31293550244059
bond_coeff 187 harmonic 10.0 7.120144278938453
bond_coeff 188 harmonic 10.0 4.1470958643489295
bond_coeff 189 harmonic 10.0 5.645483727051207
bond_coeff 190 harmonic 10.0 5.2612897129886305
bond_coeff 191 harmonic 10.0 6.093737314661667
bond_coeff 192 harmonic 10.0 6.308006397381031
bond_coeff 193 harmonic 10.0 3.716603208966488
bond_coeff 194 harmonic 10.0 5.581822085779875
bond_coeff 195 harmonic 10.0 5.27324436376696
bond_coeff 196 harmonic 10.0 6.148387614651504
bond_coeff 197 harmonic 10.0 3.758979602232499
bond_coeff 198 harmonic 10.0 5.567223242236654
bond_coeff 199 harmonic 10.0 5.044150660210299
bond_coeff 200 harmonic 10.0 6.6088326888566336
bond_coeff 201 harmonic 10.0 5.841256360313249
bond_coeff 202 harmonic 10.0 7.145967829230694
bond_coeff 203 harmonic 10.0 3.917072475880425
bond_coeff 204 harmonic 10.0 5.1429799874489115
bond_coeff 205 harmonic 10.0 5.103770924414615
bond_coeff 206 harmonic 10.0 6.2182300530376
bond_coeff 207 harmonic 10.0 7.267350657357878
bond_coeff 208 harmonic 10.0 3.7773994467093397
bond_coeff 209 harmonic 10.0 5.506716155604901
bond_coeff 210 harmonic 10.0 5.080877864463975
bond_coeff 211 harmonic 10.0 6.139627254654798
bond_coeff 212 harmonic 10.0 3.8106207266533363
bond_coeff 213 harmonic 10.0 5.5797549234352575
bond_coeff 214 harmonic 10.0 5.628281847429108
bond_coeff 215 harmonic 10.0 6.718532435852342
bond_coeff 216 harmonic 10.0 3.809161614528845
bond_coeff 217 harmonic 10.0 5.822238466509253
bond_coeff 218 harmonic 10.0 5.732093591315482
bond_coeff 219 harmonic 10.0 7.105199039161394
bond_coeff 220 harmonic 10.0 6.220625914849724
bond_coeff 221 harmonic 10.0 7.06109899560465
bond_coeff 222 harmonic 10.0 4.0157766480346
bond_coeff 223 harmonic 10.0 5.501844277149254
bond_coeff 224 harmonic 10.0 5.458968457730819
bond_coeff 225 harmonic 10.0 6.1361054128494255
bond_coeff 226 harmonic 10.0 6.718242444491638
bond_coeff 227 harmonic 10.0 3.5787628768751913
bond_coeff 228 harmonic 10.0 5.279779507555216
bond_coeff 229 harmonic 10.0 5.072278448281403
bond_coeff 230 harmonic 10.0 6.05860835067757
bond_coeff 231 harmonic 10.0 3.8027173169327217
bond_coeff 232 harmonic 10.0 5.900855996514404
bond_coeff 233 harmonic 10.0 3.8573453226409504
bond_coeff 234 harmonic 10.0 7.380929684159034
bond_coeff 235 harmonic 10.0 6.882001235287595
bond_coeff 236 harmonic 10.0 3.8396101986529803
bond_coeff 237 harmonic 10.0 6.9113455213945105
bond_coeff 238 harmonic 10.0 7.466335656297536
bond_coeff 239 harmonic 10.0 3.979979486743619
bond_coeff 240 harmonic 10.0 6.473956591150424
bond_coeff 241 harmonic 10.0 3.9805990340148565
bond_coeff 242 harmonic 10.0 7.368782402873626
bond_coeff 243 harmonic 10.0 7.132922143441635
bond_coeff 244 harmonic 10.0 3.8157502537377894
bond_coeff 245 harmonic 10.0 7.030654575165813
bond_coeff 246 harmonic 10.0 4.755076954203793
bond_coeff 247 harmonic 10.0 5.800664439906862
bond_coeff 248 harmonic 10.0 7.469550144836299
bond_coeff 249 harmonic 10.0 4.123631484141133
bond_coeff 250 harmonic 10.0 6.520728495383011
bond_coeff 251 harmonic 10.0 6.0744055579538
bond_coeff 252 harmonic 10.0 4.513702641302371
bond_coeff 253 harmonic 10.0 6.422215810450782
bond_coeff 254 harmonic 10.0 7.116997541098353
bond_coeff 255 harmonic 10.0 5.481107948772766
bond_coeff 256 harmonic 10.0 7.136355772129081
bond_coeff 257 harmonic 10.0 3.6046697029963823
bond_coeff 258 harmonic 10.0 6.227835275125701
bond_coeff 259 harmonic 10.0 5.503542736319941
bond_coeff 260 harmonic 10.0 6.0232113419753075
bond_coeff 261 harmonic 10.0 5.571185711399324
bond_coeff 262 harmonic 10.0 5.109144439516659
bond_coeff 263 harmonic 10.0 6.586813871717038
bond_coeff 264 harmonic 10.0 5.898836861322749
bond_coeff 265 harmonic 10.0 3.912962074515929
bond_coeff 266 harmonic 10.0 5.190374895149291
bond_coeff 267 harmonic 10.0 5.023669497966602
bond_coeff 268 harmonic 10.0 6.496676412982259
bond_coeff 269 harmonic 10.0 6.796736320632131
bond_coeff 270 harmonic 10.0 6.590235529492402
bond_coeff 271 harmonic 10.0 5.806334089690672
bond_coeff 272 harmonic 10.0 7.239378333378082
bond_coeff 273 harmonic 10.0 5.137161587277549
bond_coeff 274 harmonic 10.0 6.96763143231615
bond_coeff 275 harmonic 10.0 3.600938589995115
bond_coeff 276 harmonic 10.0 5.488403713995537
bond_coeff 277 harmonic 10.0 5.326213179961914
bond_coeff 278 harmonic 10.0 6.1856053386749466
bond_coeff 279 harmonic 10.0 6.850373062016403
bond_coeff 280 harmonic 10.0 7.190280500175221
bond_coeff 281 harmonic 10.0 4.052679273462926
bond_coeff 282 harmonic 10.0 5.639470906398577
bond_coeff 283 harmonic 10.0 4.926892015282654
bond_coeff 284 harmonic 10.0 6.067024727239536
bond_coeff 285 harmonic 10.0 7.410686946809991
bond_coeff 286 harmonic 10.0 5.977458463951046
bond_coeff 287 harmonic 10.0 7.255978684650058
bond_coeff 288 harmonic 10.0 3.804595283259443
bond_coeff 289 harmonic 10.0 5.157555289352117
bond_coeff 290 harmonic 10.0 4.850705940963644
bond_coeff 291 harmonic 10.0 6.230650497732961
bond_coeff 292 harmonic 10.0 6.770974446333703
bond_coeff 293 harmonic 10.0 5.575114645707655
bond_coeff 294 harmonic 10.0 4.462165605338287
bond_coeff 295 harmonic 10.0 6.7399801843774005
bond_coeff 296 harmonic 10.0 3.8390957158481993
bond_coeff 297 harmonic 10.0 5.652876700733884
bond_coeff 298 harmonic 10.0 5.186909372265917
bond_coeff 299 harmonic 10.0 6.185021007760281
bond_coeff 300 harmonic 10.0 3.7919571966708703
bond_coeff 301 harmonic 10.0 5.282324261260758
bond_coeff 302 harmonic 10.0 4.797961532331832
bond_coeff 303 harmonic 10.0 5.954639418599922
bond_coeff 304 harmonic 10.0 4.081181055650436
bond_coeff 305 harmonic 10.0 5.423341272449671
bond_coeff 306 harmonic 10.0 5.343277886279171
bond_coeff 307 harmonic 10.0 6.1111435865944514
bond_coeff 308 harmonic 10.0 6.34570690444524
bond_coeff 309 harmonic 10.0 6.563984748100805
bond_coeff 310 harmonic 10.0 7.115179411090067
bond_coeff 311 harmonic 10.0 6.694983840891627
bond_coeff 312 harmonic 10.0 3.5913997014835313
bond_coeff 313 harmonic 10.0 5.718565061009624
bond_coeff 314 harmonic 10.0 5.10750279068514
bond_coeff 315 harmonic 10.0 5.78814833981473
bond_coeff 316 harmonic 10.0 3.752984661510889
bond_coeff 317 harmonic 10.0 5.122989667007741
bond_coeff 318 harmonic 10.0 4.70526649456075
bond_coeff 319 harmonic 10.0 6.2850528243202515
bond_coeff 320 harmonic 10.0 3.835288644818078
bond_coeff 321 harmonic 10.0 5.428169344346213
bond_coeff 322 harmonic 10.0 5.509842164599633
bond_coeff 323 harmonic 10.0 6.2245759220126775
bond_coeff 324 harmonic 10.0 6.3880933083745735
bond_coeff 325 harmonic 10.0 3.787244069403304
bond_coeff 326 harmonic 10.0 5.561039910142929
bond_coeff 327 harmonic 10.0 5.177574661630529
bond_coeff 328 harmonic 10.0 5.8007766367610545
bond_coeff 329 harmonic 10.0 6.736856241142934
bond_coeff 330 harmonic 10.0 6.813263295750906
bond_coeff 331 harmonic 10.0 3.7070836938083813
bond_coeff 332 harmonic 10.0 5.6912817156419155
bond_coeff 333 harmonic 10.0 5.0245498280842025
bond_coeff 334 harmonic 10.0 6.518324795681786
bond_coeff 335 harmonic 10.0 7.133508746458505
bond_coeff 336 harmonic 10.0 7.228891186295448
bond_coeff 337 harmonic 10.0 3.9627353023511422
bond_coeff 338 harmonic 10.0 5.034024376564044
bond_coeff 339 harmonic 10.0 5.257375128949809
bond_coeff 340 harmonic 10.0 5.835889267146869
bond_coeff 341 harmonic 10.0 3.719526975068335
bond_coeff 342 harmonic 10.0 5.596167452462445
bond_coeff 343 harmonic 10.0 5.243852877922874
bond_coeff 344 harmonic 10.0 5.8101392815146875
bond_coeff 345 harmonic 10.0 6.210094155590558
bond_coeff 346 harmonic 10.0 3.6047923886710875
bond_coeff 347 harmonic 10.0 5.7369647793063026
bond_coeff 348 harmonic 10.0 5.829677181796691
bond_coeff 349 harmonic 10.0 6.167029890258439
bond_coeff 350 harmonic 10.0 3.8524134376388
bond_coeff 351 harmonic 10.0 5.559926413128145
bond_coeff 352 harmonic 10.0 4.742815338604276
bond_coeff 353 harmonic 10.0 6.103078231097812
bond_coeff 354 harmonic 10.0 6.966128473707616
bond_coeff 355 harmonic 10.0 3.89528161360639
bond_coeff 356 harmonic 10.0 5.268847180531999
bond_coeff 357 harmonic 10.0 4.977124084709963
bond_coeff 358 harmonic 10.0 6.434349793739846
bond_coeff 359 harmonic 10.0 6.542457480465579
bond_coeff 360 harmonic 10.0 6.0949549912284
bond_coeff 361 harmonic 10.0 6.913116967945791
bond_coeff 362 harmonic 10.0 5.446133712139281
bond_coeff 363 harmonic 10.0 3.7830414253745626
bond_coeff 364 harmonic 10.0 5.35305164551025
bond_coeff 365 harmonic 10.0 5.1190013518751885
bond_coeff 366 harmonic 10.0 6.446066596405904
bond_coeff 367 harmonic 10.0 7.194470163549224
bond_coeff 368 harmonic 10.0 3.88638310702895
bond_coeff 369 harmonic 10.0 5.483513993362286
bond_coeff 370 harmonic 10.0 4.820380675859532
bond_coeff 371 harmonic 10.0 5.815479203625442
bond_coeff 372 harmonic 10.0 3.7064326357563817
bond_coeff 373 harmonic 10.0 5.0254311907934825
bond_coeff 374 harmonic 10.0 4.581716800087059
bond_coeff 375 harmonic 10.0 5.591957932915805
bond_coeff 376 harmonic 10.0 5.794142882333849
bond_coeff 377 harmonic 10.0 5.224498155469096
bond_coeff 378 harmonic 10.0 7.233096042919656
bond_coeff 379 harmonic 10.0 4.038063069987888
bond_coeff 380 harmonic 10.0 5.741845942499677
bond_coeff 381 harmonic 10.0 5.369370184565412
bond_coeff 382 harmonic 10.0 6.306934371572373
bond_coeff 383 harmonic 10.0 5.196840255568761
bond_coeff 384 harmonic 10.0 6.860011351390026
bond_coeff 385 harmonic 10.0 3.725767476185276
bond_coeff 386 harmonic 10.0 5.467667606402203
bond_coeff 387 harmonic 10.0 5.094741543379899
bond_coeff 388 harmonic 10.0 6.220025881650333
bond_coeff 389 harmonic 10.0 6.474770628910649
bond_coeff 390 harmonic 10.0 6.78965982562455
bond_coeff 391 harmonic 10.0 3.826950551666431
bond_coeff 392 harmonic 10.0 5.489319983023489
bond_coeff 393 harmonic 10.0 5.279889056807916
bond_coeff 394 harmonic 10.0 6.352274703112263
bond_coeff 395 harmonic 10.0 7.013145729985154
bond_coeff 396 harmonic 10.0 4.841496727440509
bond_coeff 397 harmonic 10.0 5.48755452751041
bond_coeff 398 harmonic 10.0 6.29423739068078
bond_coeff 399 harmonic 10.0 3.9140271382402294
bond_coeff 400 harmonic 10.0 5.7072946396432
bond_coeff 401 harmonic 10.0 5.024067990493362
bond_coeff 402 harmonic 10.0 6.543082274012761
bond_coeff 403 harmonic 10.0 6.329172530369906
bond_coeff 404 harmonic 10.0 7.233819767283475
bond_coeff 405 harmonic 10.0 7.469626175659663
bond_coeff 406 harmonic 10.0 6.361799158304197
bond_coeff 407 harmonic 10.0 3.9762249655824307
bond_coeff 408 harmonic 10.0 5.338760624497131
bond_coeff 409 harmonic 10.0 5.300036384797844
bond_coeff 410 harmonic 10.0 6.318531629787176
bond_coeff 411 harmonic 10.0 4.04094836732666
bond_coeff 412 harmonic 10.0 5.705632524006431
bond_coeff 413 harmonic 10.0 4.997340748568182
bond_coeff 414 harmonic 10.0 6.75417670006493
bond_coeff 415 harmonic 10.0 5.66490874815095
bond_coeff 416 harmonic 10.0 7.371975327266363
bond_coeff 417 harmonic 10.0 7.0140880406710036
bond_coeff 418 harmonic 10.0 7.346025634892652
bond_coeff 419 harmonic 10.0 3.753870179188407
bond_coeff 420 harmonic 10.0 5.159503157291407
bond_coeff 421 harmonic 10.0 4.933801032581269
bond_coeff 422 harmonic 10.0 6.350935476770333
bond_coeff 423 harmonic 10.0 5.288931485555471
bond_coeff 424 harmonic 10.0 6.731116227684678
bond_coeff 425 harmonic 10.0 7.033575889325428
bond_coeff 426 harmonic 10.0 6.356283947054993
bond_coeff 427 harmonic 10.0 6.067164111077032
bond_coeff 428 harmonic 10.0 3.6442334539241577
bond_coeff 429 harmonic 10.0 5.084054714546255
bond_coeff 430 harmonic 10.0 4.711692460645114
bond_coeff 431 harmonic 10.0 5.286522727039014
bond_coeff 432 harmonic 10.0 6.679731430634021
bond_coeff 433 harmonic 10.0 4.0765733559694475
bond_coeff 434 harmonic 10.0 5.680837049467271
bond_coeff 435 harmonic 10.0 6.338885677388416
bond_coeff 436 harmonic 10.0 3.8470112356737403
bond_coeff 437 harmonic 10.0 5.604157700975232
bond_coeff 438 harmonic 10.0 6.198037665503494
bond_coeff 439 harmonic 10.0 4.333625773160391
bond_coeff 440 harmonic 10.0 6.870128349938158
bond_coeff 441 harmonic 10.0 3.8504385196753894
bond_coeff 442 harmonic 10.0 7.051953538254489
bond_coeff 443 harmonic 10.0 7.487100707470148
bond_coeff 444 harmonic 10.0 3.741873705792327
bond_coeff 445 harmonic 10.0 5.373970943911028
bond_coeff 446 harmonic 10.0 5.8395637113229615
bond_coeff 447 harmonic 10.0 5.76354954593955
bond_coeff 448 harmonic 10.0 3.7791585569409487
bond_coeff 449 harmonic 10.0 6.781092560489718
bond_coeff 450 harmonic 10.0 6.757474290561526
bond_coeff 451 harmonic 10.0 5.881965938520981
bond_coeff 452 harmonic 10.0 5.973412142201473
bond_coeff 453 harmonic 10.0 7.246996043713558
bond_coeff 454 harmonic 10.0 3.793446474093051
bond_coeff 455 harmonic 10.0 6.516318633320581
bond_coeff 456 harmonic 10.0 7.345212997742135
bond_coeff 457 harmonic 10.0 6.96258408159643
bond_coeff 458 harmonic 10.0 4.36580925562272
bond_coeff 459 harmonic 10.0 5.317578142773269
bond_coeff 460 harmonic 10.0 6.33360139599241
bond_coeff 461 harmonic 10.0 7.3983742747309025
bond_coeff 462 harmonic 10.0 7.015989252193878
bond_coeff 463 harmonic 10.0 7.122478747496267
bond_coeff 464 harmonic 10.0 3.8046021709482316
bond_coeff 465 harmonic 10.0 7.070015443285891
bond_coeff 466 harmonic 10.0 6.617979840949483
bond_coeff 467 harmonic 10.0 7.142566128062729
bond_coeff 468 harmonic 10.0 6.584518509643966
bond_coeff 469 harmonic 10.0 5.187080055105089
bond_coeff 470 harmonic 10.0 5.682010947001951
bond_coeff 471 harmonic 10.0 7.444527813925407
bond_coeff 472 harmonic 10.0 3.8139270318175984
bond_coeff 473 harmonic 10.0 5.334454197477094
bond_coeff 474 harmonic 10.0 5.775887265162241
bond_coeff 475 harmonic 10.0 7.247410627489034
bond_coeff 476 harmonic 10.0 7.1835283767923555
bond_coeff 477 harmonic 10.0 5.541078262214496
bond_coeff 478 harmonic 10.0 6.802291935259837
bond_coeff 479 harmonic 10.0 6.172970843917944
bond_coeff 480 harmonic 10.0 3.667929932672651
bond_coeff 481 harmonic 10.0 5.624184127445505
bond_coeff 482 harmonic 10.0 5.4383265191909915
bond_coeff 483 harmonic 10.0 6.738616349926445
bond_coeff 484 harmonic 10.0 6.676034475912778
bond_coeff 485 harmonic 10.0 5.945123292061822
bond_coeff 486 harmonic 10.0 6.483735565938513
bond_coeff 487 harmonic 10.0 3.998933213226392
bond_coeff 488 harmonic 10.0 5.189187956405125
bond_coeff 489 harmonic 10.0 5.289307131269652
bond_coeff 490 harmonic 10.0 6.169064049964468
bond_coeff 491 harmonic 10.0 3.558651019862605
bond_coeff 492 harmonic 10.0 5.891529515932612
bond_coeff 493 harmonic 10.0 5.317044562381959
bond_coeff 494 harmonic 10.0 6.00002074298124
bond_coeff 495 harmonic 10.0 4.00406169612807
bond_coeff 496 harmonic 10.0 5.554364912083469
bond_coeff 497 harmonic 10.0 5.128721488652313
bond_coeff 498 harmonic 10.0 6.197594409436293
bond_coeff 499 harmonic 10.0 4.127589557194852
bond_coeff 500 harmonic 10.0 5.55312727985988
bond_coeff 501 harmonic 10.0 5.24643974870159
bond_coeff 502 harmonic 10.0 6.233062348773674
bond_coeff 503 harmonic 10.0 3.8110599079767824
bond_coeff 504 harmonic 10.0 5.7999421414752055
bond_coeff 505 harmonic 10.0 5.384022754889136
bond_coeff 506 harmonic 10.0 6.065932049974184
bond_coeff 507 harmonic 10.0 7.389375092528732
bond_coeff 508 harmonic 10.0 7.401561651813285
bond_coeff 509 harmonic 10.0 3.804578375990695
bond_coeff 510 harmonic 10.0 5.458303998648665
bond_coeff 511 harmonic 10.0 5.171973286342844
bond_coeff 512 harmonic 10.0 5.731291025645443
bond_coeff 513 harmonic 10.0 6.9044939530499985
bond_coeff 514 harmonic 10.0 4.017455196635801
bond_coeff 515 harmonic 10.0 5.738566515578259
bond_coeff 516 harmonic 10.0 5.160235444988532
bond_coeff 517 harmonic 10.0 6.069687533298234
bond_coeff 518 harmonic 10.0 5.486662923332907
bond_coeff 519 harmonic 10.0 5.85976748912924
bond_coeff 520 harmonic 10.0 3.7607409813094015
bond_coeff 521 harmonic 10.0 5.550342232772678
bond_coeff 522 harmonic 10.0 5.021327115225616
bond_coeff 523 harmonic 10.0 6.319017492213485
bond_coeff 524 harmonic 10.0 4.905466661633732
bond_coeff 525 harmonic 10.0 7.113572530409737
bond_coeff 526 harmonic 10.0 3.8888721821114145
bond_coeff 527 harmonic 10.0 5.011762402369051
bond_coeff 528 harmonic 10.0 6.576632180348845
bond_coeff 529 harmonic 10.0 6.379750892824892
bond_coeff 530 harmonic 10.0 6.298448063682036
bond_coeff 531 harmonic 10.0 5.872610115766243
bond_coeff 532 harmonic 10.0 3.5960424265850928
bond_coeff 533 harmonic 10.0 5.580463885610228
bond_coeff 534 harmonic 10.0 5.710221183255514
bond_coeff 535 harmonic 10.0 4.754420706437326
bond_coeff 536 harmonic 10.0 7.16776993437987
bond_coeff 537 harmonic 10.0 3.7594920934881624
bond_coeff 538 harmonic 10.0 5.119556230192223
bond_coeff 539 harmonic 10.0 7.09870095058948
bond_coeff 540 harmonic 10.0 7.013015949176218
bond_coeff 541 harmonic 10.0 3.924045046441236
bond_coeff 542 harmonic 10.0 6.8076392095130895
bond_coeff 543 harmonic 10.0 3.56346214721021
bond_coeff 544 harmonic 10.0 7.148803558680292
bond_coeff 545 harmonic 10.0 5.560129842548644
bond_coeff 546 harmonic 10.0 7.350573682114887
bond_coeff 547 harmonic 10.0 3.807411678555394
bond_coeff 548 harmonic 10.0 5.392875787935413
bond_coeff 549 harmonic 10.0 5.905322957510452
bond_coeff 550 harmonic 10.0 6.078181411647731
bond_coeff 551 harmonic 10.0 7.312164671429384
bond_coeff 552 harmonic 10.0 3.904546520929159
bond_coeff 553 harmonic 10.0 5.694923766171063
bond_coeff 554 harmonic 10.0 6.9136206787760655
bond_coeff 555 harmonic 10.0 7.412397898311988
bond_coeff 556 harmonic 10.0 3.906150212882245
bond_coeff 557 harmonic 10.0 5.716663461504448
bond_coeff 558 harmonic 10.0 3.8647782151761323
bond_coeff 559 harmonic 10.0 6.780857320612195
bond_coeff 560 harmonic 10.0 7.423006456746485
bond_coeff 561 harmonic 10.0 3.4650264429005433
bond_coeff 562 harmonic 10.0 5.9348453241512535
bond_coeff 563 harmonic 10.0 5.6746607195849155
bond_coeff 564 harmonic 10.0 6.659987161819458
bond_coeff 565 harmonic 10.0 5.445768727746339
bond_coeff 566 harmonic 10.0 3.8749923731021716
bond_coeff 567 harmonic 10.0 5.264952008556203
bond_coeff 568 harmonic 10.0 5.404212451930437
bond_coeff 569 harmonic 10.0 6.233423682255203
bond_coeff 570 harmonic 10.0 6.628747140523615
bond_coeff 571 harmonic 10.0 6.205751579470449
bond_coeff 572 harmonic 10.0 3.902413645220096
bond_coeff 573 harmonic 10.0 5.731019285432566
bond_coeff 574 harmonic 10.0 5.311506877572504
bond_coeff 575 harmonic 10.0 6.209325666479413
bond_coeff 576 harmonic 10.0 6.170704809249911
bond_coeff 577 harmonic 10.0 7.485062725856077
bond_coeff 578 harmonic 10.0 3.7080169067036364
bond_coeff 579 harmonic 10.0 5.559733777088612
bond_coeff 580 harmonic 10.0 5.182878305690767
bond_coeff 581 harmonic 10.0 6.182089189950271
bond_coeff 582 harmonic 10.0 7.383328986331302
bond_coeff 583 harmonic 10.0 3.791865695208626
bond_coeff 584 harmonic 10.0 5.293808505263484
bond_coeff 585 harmonic 10.0 4.886400513148713
bond_coeff 586 harmonic 10.0 6.202726240331747
bond_coeff 587 harmonic 10.0 7.319961735706
bond_coeff 588 harmonic 10.0 4.025109005691648
bond_coeff 589 harmonic 10.0 5.3937691818986835
bond_coeff 590 harmonic 10.0 5.031293595746524
bond_coeff 591 harmonic 10.0 6.049992539747467
bond_coeff 592 harmonic 10.0 3.561392964571588
bond_coeff 593 harmonic 10.0 5.548361855367763
bond_coeff 594 harmonic 10.0 4.759041819536787
bond_coeff 595 harmonic 10.0 6.008888840218299
bond_coeff 596 harmonic 10.0 4.076888298715088
bond_coeff 597 harmonic 10.0 5.173992157067888
bond_coeff 598 harmonic 10.0 4.591138320111909
bond_coeff 599 harmonic 10.0 6.475466826909084
bond_coeff 600 harmonic 10.0 3.8669522310470814
bond_coeff 601 harmonic 10.0 5.127142761441307
bond_coeff 602 harmonic 10.0 4.547366531235414
bond_coeff 603 harmonic 10.0 6.50968153369272
bond_coeff 604 harmonic 10.0 5.393780787740637
bond_coeff 605 harmonic 10.0 3.8041368212775946
bond_coeff 606 harmonic 10.0 4.910927505899472
bond_coeff 607 harmonic 10.0 4.8344479135988205
bond_coeff 608 harmonic 10.0 4.567853695314683
bond_coeff 609 harmonic 10.0 6.560660698595836
bond_coeff 610 harmonic 10.0 6.376126171908772