variable I world A B C D E F G H I J K L M N O P
variable a world 8.00 8.34 8.70 9.07 9.46 9.86 10.29 10.73 11.19 11.67 12.16 12.69 13.23 13.79 14.38 15.00
variable l equal 1.0/${a}
variable Q equal 3.5*${a}

# Initialization
units		real
atom_style   hybrid ellipsoid angle charge

boundary s s s

log log.temper.${I}.txt
read_data nucl_b.txt

set type 1 mass 71.08
set type 2 mass 156.2
set type 3 mass 114.1
set type 4 mass 115.1
set type 5 mass 103.1
set type 6 mass 128.1
set type 7 mass 129.1
set type 8 mass 57.05
set type 9 mass 137.1
set type 10 mass 113.2
set type 11 mass 113.2
set type 12 mass 128.2
set type 13 mass 131.2
set type 14 mass 147.2
set type 15 mass 97.12
set type 16 mass 87.08
set type 17 mass 101.1
set type 18 mass 186.2
set type 19 mass 163.2
set type 20 mass 99.07
set type 21 mass 71.08
set type 22 mass 156.2
set type 23 mass 114.1
set type 24 mass 115.1
set type 25 mass 103.1
set type 26 mass 128.1
set type 27 mass 129.1
set type 28 mass 57.05
set type 29 mass 137.1
set type 30 mass 113.2
set type 31 mass 113.2
set type 32 mass 128.2
set type 33 mass 131.2
set type 34 mass 147.2
set type 35 mass 97.12
set type 36 mass 87.08
set type 37 mass 101.1
set type 38 mass 186.2
set type 39 mass 163.2
set type 40 mass 99.07
set type 41 mass 650.0
set type 42 mass 0.000001
pair_style ljlambda $l 20.34 $Q
dielectric  80.0

bond_style hybrid harmonic harmonic/DNA zero

bond_coeff 1 harmonic 10.0 3.8
bond_coeff 2 harmonic/DNA 0.0 0.0
bond_coeff 3 zero
bond_coeff 4 harmonic 10.0 4.103801819788571
bond_coeff 5 harmonic 10.0 6.7756515864073155
bond_coeff 6 harmonic 10.0 6.847465247878224
bond_coeff 7 harmonic 10.0 6.6734619841278775
bond_coeff 8 harmonic 10.0 3.952942425981436
bond_coeff 9 harmonic 10.0 6.41052395543734
bond_coeff 10 harmonic 10.0 5.887520719997511
bond_coeff 11 harmonic 10.0 3.746328280989801
bond_coeff 12 harmonic 10.0 5.541484300763107
bond_coeff 13 harmonic 10.0 6.922132720384954
bond_coeff 14 harmonic 10.0 7.14881785965232
bond_coeff 15 harmonic 10.0 3.6779108217840184
bond_coeff 16 harmonic 10.0 5.663151607253333
bond_coeff 17 harmonic 10.0 4.5594268217349425
bond_coeff 18 harmonic 10.0 6.130096988539089
bond_coeff 19 harmonic 10.0 6.6086021453508605
bond_coeff 20 harmonic 10.0 7.189873783834875
bond_coeff 21 harmonic 10.0 3.6100016677142968
bond_coeff 22 harmonic 10.0 4.933775740181143
bond_coeff 23 harmonic 10.0 5.239949696561982
bond_coeff 24 harmonic 10.0 6.819258802098656
bond_coeff 25 harmonic 10.0 3.8495505566364483
bond_coeff 26 harmonic 10.0 5.301404768587285
bond_coeff 27 harmonic 10.0 5.206488478322025
bond_coeff 28 harmonic 10.0 6.055494472757778
bond_coeff 29 harmonic 10.0 3.6603665424244056
bond_coeff 30 harmonic 10.0 5.627448217478327
bond_coeff 31 harmonic 10.0 4.930494178365897
bond_coeff 32 harmonic 10.0 6.096762407589785
bond_coeff 33 harmonic 10.0 6.103676696885248
bond_coeff 34 harmonic 10.0 3.848138239785573
bond_coeff 35 harmonic 10.0 5.31760397130136
bond_coeff 36 harmonic 10.0 4.945708120633483
bond_coeff 37 harmonic 10.0 6.3513716441804915
bond_coeff 38 harmonic 10.0 6.548245888510906
bond_coeff 39 harmonic 10.0 4.0425709052656105
bond_coeff 40 harmonic 10.0 5.422169013134872
bond_coeff 41 harmonic 10.0 4.786401168414533
bond_coeff 42 harmonic 10.0 6.098787910929515
bond_coeff 43 harmonic 10.0 3.8728497407593787
bond_coeff 44 harmonic 10.0 5.4710251157255705
bond_coeff 45 harmonic 10.0 4.922439121269049
bond_coeff 46 harmonic 10.0 6.317791784714022
bond_coeff 47 harmonic 10.0 6.781741086483616
bond_coeff 48 harmonic 10.0 4.0381115286727765
bond_coeff 49 harmonic 10.0 5.551075185628457
bond_coeff 50 harmonic 10.0 5.595735006886942
bond_coeff 51 harmonic 10.0 5.734621803266541
bond_coeff 52 harmonic 10.0 4.596767606612282
bond_coeff 53 harmonic 10.0 5.899630307476902
bond_coeff 54 harmonic 10.0 5.761813703383684
bond_coeff 55 harmonic 10.0 7.299679737043264
bond_coeff 56 harmonic 10.0 7.408009212717004
bond_coeff 57 harmonic 10.0 3.9069976396844672
bond_coeff 58 harmonic 10.0 6.071929370941332
bond_coeff 59 harmonic 10.0 5.050531954804362
bond_coeff 60 harmonic 10.0 6.332787160145207
bond_coeff 61 harmonic 10.0 6.989599927392125
bond_coeff 62 harmonic 10.0 4.048895631206122
bond_coeff 63 harmonic 10.0 5.55328196114694
bond_coeff 64 harmonic 10.0 5.489818790233428
bond_coeff 65 harmonic 10.0 6.473915448505641
bond_coeff 66 harmonic 10.0 4.029433798984667
bond_coeff 67 harmonic 10.0 5.453290074111224
bond_coeff 68 harmonic 10.0 5.229005843370228
bond_coeff 69 harmonic 10.0 7.477529422402831
bond_coeff 70 harmonic 10.0 6.650886496467971
bond_coeff 71 harmonic 10.0 6.555429971962174
bond_coeff 72 harmonic 10.0 5.1200598270332724
bond_coeff 73 harmonic 10.0 3.9380037538834305
bond_coeff 74 harmonic 10.0 6.010260255795917
bond_coeff 75 harmonic 10.0 7.3996122038185215
bond_coeff 76 harmonic 10.0 4.997600084600608
bond_coeff 77 harmonic 10.0 7.4227745597451635
bond_coeff 78 harmonic 10.0 7.388535325624423
bond_coeff 79 harmonic 10.0 7.334410297864718
bond_coeff 80 harmonic 10.0 6.034595151322695
bond_coeff 81 harmonic 10.0 6.5603239900251875
bond_coeff 82 harmonic 10.0 5.097821369183114
bond_coeff 83 harmonic 10.0 3.6566276444833687
bond_coeff 84 harmonic 10.0 6.628581096471551
bond_coeff 85 harmonic 10.0 7.48326893494975
bond_coeff 86 harmonic 10.0 6.6079208978997315
bond_coeff 87 harmonic 10.0 4.054498870501756
bond_coeff 88 harmonic 10.0 6.207989817074445
bond_coeff 89 harmonic 10.0 6.990702438260693
bond_coeff 90 harmonic 10.0 3.565420100072359
bond_coeff 91 harmonic 10.0 6.670358228648593
bond_coeff 92 harmonic 10.0 5.948364205655534
bond_coeff 93 harmonic 10.0 6.579282327191926
bond_coeff 94 harmonic 10.0 4.4164449904967675
bond_coeff 95 harmonic 10.0 7.472163552279845
bond_coeff 96 harmonic 10.0 3.866313347169368
bond_coeff 97 harmonic 10.0 5.754493781141829
bond_coeff 98 harmonic 10.0 7.220779526638658
bond_coeff 99 harmonic 10.0 7.105652956687653
bond_coeff 100 harmonic 10.0 3.7577434862028545
bond_coeff 101 harmonic 10.0 5.807914673271293
bond_coeff 102 harmonic 10.0 7.117087465557804
bond_coeff 103 harmonic 10.0 7.394160498832845
bond_coeff 104 harmonic 10.0 3.593780594708029
bond_coeff 105 harmonic 10.0 6.3695312534675566
bond_coeff 106 harmonic 10.0 7.144775753835805
bond_coeff 107 harmonic 10.0 6.12908185235766
bond_coeff 108 harmonic 10.0 6.572896130086039
bond_coeff 109 harmonic 10.0 3.707098161635325
bond_coeff 110 harmonic 10.0 6.6038852667274615
bond_coeff 111 harmonic 10.0 7.140735591727299
bond_coeff 112 harmonic 10.0 7.475108245804872
bond_coeff 113 harmonic 10.0 7.438351622779068
bond_coeff 114 harmonic 10.0 7.4489256950247515
bond_coeff 115 harmonic 10.0 5.696806741640442
bond_coeff 116 harmonic 10.0 7.48970025654565
bond_coeff 117 harmonic 10.0 4.093400407741712
bond_coeff 118 harmonic 10.0 5.964226944913817
bond_coeff 119 harmonic 10.0 5.201882071675213
bond_coeff 120 harmonic 10.0 6.121083319736876
bond_coeff 121 harmonic 10.0 3.8657073463282234
bond_coeff 122 harmonic 10.0 5.4081636650933556
bond_coeff 123 harmonic 10.0 5.196288201480072
bond_coeff 124 harmonic 10.0 6.087676940549654
bond_coeff 125 harmonic 10.0 3.5431351495673984
bond_coeff 126 harmonic 10.0 5.210427226204103
bond_coeff 127 harmonic 10.0 4.861233652121239
bond_coeff 128 harmonic 10.0 5.9583136831989645
bond_coeff 129 harmonic 10.0 3.8606860390776405
bond_coeff 130 harmonic 10.0 5.537001005047407
bond_coeff 131 harmonic 10.0 5.088384468863963
bond_coeff 132 harmonic 10.0 6.2091419172713405
bond_coeff 133 harmonic 10.0 6.688622402429069
bond_coeff 134 harmonic 10.0 6.584966417271695
bond_coeff 135 harmonic 10.0 3.703112581191799
bond_coeff 136 harmonic 10.0 5.3525902113837365
bond_coeff 137 harmonic 10.0 4.773937514668684
bond_coeff 138 harmonic 10.0 5.9819554755682525
bond_coeff 139 harmonic 10.0 7.176810822163351
bond_coeff 140 harmonic 10.0 7.305338339945729
bond_coeff 141 harmonic 10.0 4.155995945642874
bond_coeff 142 harmonic 10.0 5.26265849929482
bond_coeff 143 harmonic 10.0 5.262189152330044
bond_coeff 144 harmonic 10.0 6.427896195435953
bond_coeff 145 harmonic 10.0 6.465059796707219
bond_coeff 146 harmonic 10.0 3.634483183122465
bond_coeff 147 harmonic 10.0 5.745236556983532
bond_coeff 148 harmonic 10.0 5.489331070950266
bond_coeff 149 harmonic 10.0 6.637385742903603
bond_coeff 150 harmonic 10.0 3.588413004337712
bond_coeff 151 harmonic 10.0 5.225481506359008
bond_coeff 152 harmonic 10.0 5.22270957864785
bond_coeff 153 harmonic 10.0 6.4004192159029705
bond_coeff 154 harmonic 10.0 6.31187313976604
bond_coeff 155 harmonic 10.0 3.828488467528666
bond_coeff 156 harmonic 10.0 5.327804791844387
bond_coeff 157 harmonic 10.0 5.096610633234602
bond_coeff 158 harmonic 10.0 6.0986862579411305
bond_coeff 159 harmonic 10.0 7.268160646195156
bond_coeff 160 harmonic 10.0 3.7572619994352294
bond_coeff 161 harmonic 10.0 5.488278356424718
bond_coeff 162 harmonic 10.0 5.334321093785037
bond_coeff 163 harmonic 10.0 6.080976980461281
bond_coeff 164 harmonic 10.0 3.6753518874252022
bond_coeff 165 harmonic 10.0 5.369325482628149
bond_coeff 166 harmonic 10.0 5.396364557968632
bond_coeff 167 harmonic 10.0 6.638269471790068
bond_coeff 168 harmonic 10.0 3.555902919091015
bond_coeff 169 harmonic 10.0 5.644949685063631
bond_coeff 170 harmonic 10.0 5.692643921597415
bond_coeff 171 harmonic 10.0 7.285690427241608
bond_coeff 172 harmonic 10.0 6.198792361710464
bond_coeff 173 harmonic 10.0 3.775811837062329
bond_coeff 174 harmonic 10.0 5.403788817496481
bond_coeff 175 harmonic 10.0 5.530387800832778
bond_coeff 176 harmonic 10.0 6.442944163967277
bond_coeff 177 harmonic 10.0 7.278785502925609
bond_coeff 178 harmonic 10.0 6.48598916479522
bond_coeff 179 harmonic 10.0 7.248489979271545
bond_coeff 180 harmonic 10.0 3.9701767305247255
bond_coeff 181 harmonic 10.0 5.386353150147138
bond_coeff 182 harmonic 10.0 5.150734154555057
bond_coeff 183 harmonic 10.0 5.753706129235312
bond_coeff 184 harmonic 10.0 3.7953878289971903
bond_coeff 185 harmonic 10.0 6.103669531527735
bond_coeff 186 harmonic 10.0 3.9735798398421527
bond_coeff 187 harmonic 10.0 7.4213442149586335
bond_coeff 188 harmonic 10.0 6.790242106140252
bond_coeff 189 harmonic 10.0 3.9077367394567406
bond_coeff 190 harmonic 10.0 7.060032845001502
bond_coeff 191 harmonic 10.0 7.305510213729086
bond_coeff 192 harmonic 10.0 3.991342363967292
bond_coeff 193 harmonic 10.0 6.198450833071117
bond_coeff 194 harmonic 10.0 3.9094336654303268
bond_coeff 195 harmonic 10.0 7.185955801179132
bond_coeff 196 harmonic 10.0 7.338414993886622
bond_coeff 197 harmonic 10.0 4.198559249945152
bond_coeff 198 harmonic 10.0 7.160508576630574
bond_coeff 199 harmonic 10.0 4.869630526939387
bond_coeff 200 harmonic 10.0 5.707366728719648
bond_coeff 201 harmonic 10.0 7.361704445670175
bond_coeff 202 harmonic 10.0 4.041740459616375
bond_coeff 203 harmonic 10.0 6.717356043102076
bond_coeff 204 harmonic 10.0 6.318219821832729
bond_coeff 205 harmonic 10.0 4.405254902313373
bond_coeff 206 harmonic 10.0 6.463979601213173
bond_coeff 207 harmonic 10.0 3.682872155600843
bond_coeff 208 harmonic 10.0 6.420739421476314
bond_coeff 209 harmonic 10.0 5.527052510635755
bond_coeff 210 harmonic 10.0 6.216404686070558
bond_coeff 211 harmonic 10.0 5.087289226259504
bond_coeff 212 harmonic 10.0 4.729510274838189
bond_coeff 213 harmonic 10.0 6.5516711427238175
bond_coeff 214 harmonic 10.0 3.9027988335296
bond_coeff 215 harmonic 10.0 5.10840538207727
bond_coeff 216 harmonic 10.0 5.08588990267436
bond_coeff 217 harmonic 10.0 6.61042304768008
bond_coeff 218 harmonic 10.0 6.678233228167164
bond_coeff 219 harmonic 10.0 6.495199875053886
bond_coeff 220 harmonic 10.0 6.181913894199758
bond_coeff 221 harmonic 10.0 3.709636166121416
bond_coeff 222 harmonic 10.0 5.517955132494735
bond_coeff 223 harmonic 10.0 5.563268008365223
bond_coeff 224 harmonic 10.0 6.106327041069775
bond_coeff 225 harmonic 10.0 4.045551142106721
bond_coeff 226 harmonic 10.0 5.798863484416232
bond_coeff 227 harmonic 10.0 5.132495569909044
bond_coeff 228 harmonic 10.0 6.246860995355985
bond_coeff 229 harmonic 10.0 7.1686337588341065
bond_coeff 230 harmonic 10.0 6.025932799436198
bond_coeff 231 harmonic 10.0 3.591635886699123
bond_coeff 232 harmonic 10.0 5.170540061988205
bond_coeff 233 harmonic 10.0 5.090246540528367
bond_coeff 234 harmonic 10.0 6.263225899660653
bond_coeff 235 harmonic 10.0 6.390100613904682
bond_coeff 236 harmonic 10.0 5.284916541755885
bond_coeff 237 harmonic 10.0 4.500029798173562
bond_coeff 238 harmonic 10.0 6.968609048535079
bond_coeff 239 harmonic 10.0 3.772138867274109
bond_coeff 240 harmonic 10.0 5.5637257313023625
bond_coeff 241 harmonic 10.0 5.158186621205655
bond_coeff 242 harmonic 10.0 6.300766479032531
bond_coeff 243 harmonic 10.0 3.899992656274625
bond_coeff 244 harmonic 10.0 5.2098271838272145
bond_coeff 245 harmonic 10.0 4.68603721761789
bond_coeff 246 harmonic 10.0 6.345519924671266
bond_coeff 247 harmonic 10.0 3.7104016222367355
bond_coeff 248 harmonic 10.0 5.322161891890926
bond_coeff 249 harmonic 10.0 5.376739923540659
bond_coeff 250 harmonic 10.0 6.332147220177368
bond_coeff 251 harmonic 10.0 6.024292139229388
bond_coeff 252 harmonic 10.0 6.8147934027244
bond_coeff 253 harmonic 10.0 6.938053176672546
bond_coeff 254 harmonic 10.0 3.902454377568686
bond_coeff 255 harmonic 10.0 5.700061155354827
bond_coeff 256 harmonic 10.0 5.30452418153193
bond_coeff 257 harmonic 10.0 5.853389602281142
bond_coeff 258 harmonic 10.0 7.116004717455224
bond_coeff 259 harmonic 10.0 3.8138756254104567
bond_coeff 260 harmonic 10.0 5.54539136649308
bond_coeff 261 harmonic 10.0 4.78817589227004
bond_coeff 262 harmonic 10.0 6.063900453421048
bond_coeff 263 harmonic 10.0 3.872680129816557
bond_coeff 264 harmonic 10.0 5.497483080550223
bond_coeff 265 harmonic 10.0 5.328461031001352
bond_coeff 266 harmonic 10.0 5.85635892576855
bond_coeff 267 harmonic 10.0 6.277924769332619
bond_coeff 268 harmonic 10.0 4.102169861140808
bond_coeff 269 harmonic 10.0 5.40235711332896
bond_coeff 270 harmonic 10.0 4.908335525970998
bond_coeff 271 harmonic 10.0 5.62405672225921
bond_coeff 272 harmonic 10.0 6.856409160650784
bond_coeff 273 harmonic 10.0 6.473009352531171
bond_coeff 274 harmonic 10.0 3.5392322634769253
bond_coeff 275 harmonic 10.0 5.701435312879117
bond_coeff 276 harmonic 10.0 5.09173448393541
bond_coeff 277 harmonic 10.0 6.430630196977276
bond_coeff 278 harmonic 10.0 7.035315031989399
bond_coeff 279 harmonic 10.0 3.73823162210543
bond_coeff 280 harmonic 10.0 5.080181180255385
bond_coeff 281 harmonic 10.0 5.374052865277751
bond_coeff 282 harmonic 10.0 6.228551462137887
bond_coeff 283 harmonic 10.0 4.046906464559813
bond_coeff 284 harmonic 10.0 5.924002034725259
bond_coeff 285 harmonic 10.0 5.345932099807199
bond_coeff 286 harmonic 10.0 6.304834427001554
bond_coeff 287 harmonic 10.0 6.512811689168434
bond_coeff 288 harmonic 10.0 3.777842787594661
bond_coeff 289 harmonic 10.0 5.563543805304404
bond_coeff 290 harmonic 10.0 5.653187649835799
bond_coeff 291 harmonic 10.0 6.3081156105798355
bond_coeff 292 harmonic 10.0 3.8830568606318403
bond_coeff 293 harmonic 10.0 5.633653988356492
bond_coeff 294 harmonic 10.0 4.736202974894552
bond_coeff 295 harmonic 10.0 6.147300376376609
bond_coeff 296 harmonic 10.0 7.225494468726691
bond_coeff 297 harmonic 10.0 3.678811248341643
bond_coeff 298 harmonic 10.0 5.191109048604162
bond_coeff 299 harmonic 10.0 5.09245943201318
bond_coeff 300 harmonic 10.0 6.228283920864559
bond_coeff 301 harmonic 10.0 6.469089318474432
bond_coeff 302 harmonic 10.0 6.580806790523483
bond_coeff 303 harmonic 10.0 6.810427102157398
bond_coeff 304 harmonic 10.0 5.121116294813075
bond_coeff 305 harmonic 10.0 4.100037361905987
bond_coeff 306 harmonic 10.0 5.619192221549731
bond_coeff 307 harmonic 10.0 5.156479703618061
bond_coeff 308 harmonic 10.0 6.557253916978128
bond_coeff 309 harmonic 10.0 6.918789435907484
bond_coeff 310 harmonic 10.0 3.8056305338011986
bond_coeff 311 harmonic 10.0 5.331483062000666
bond_coeff 312 harmonic 10.0 5.2535820519812955
bond_coeff 313 harmonic 10.0 5.862814069523269
bond_coeff 314 harmonic 10.0 3.594120603179588
bond_coeff 315 harmonic 10.0 5.174135811621105
bond_coeff 316 harmonic 10.0 4.631550149852639
bond_coeff 317 harmonic 10.0 6.027058269006531
bond_coeff 318 harmonic 10.0 5.8757964931488225
bond_coeff 319 harmonic 10.0 5.302383179071464
bond_coeff 320 harmonic 10.0 7.240603103070904
bond_coeff 321 harmonic 10.0 3.551775821824908
bond_coeff 322 harmonic 10.0 5.400999311257131
bond_coeff 323 harmonic 10.0 5.3661452802360845
bond_coeff 324 harmonic 10.0 6.351215273176701
bond_coeff 325 harmonic 10.0 5.204129299402544
bond_coeff 326 harmonic 10.0 6.65443192875996
bond_coeff 327 harmonic 10.0 3.8358068682481923
bond_coeff 328 harmonic 10.0 5.310960429103195
bond_coeff 329 harmonic 10.0 4.881381343907993
bond_coeff 330 harmonic 10.0 6.209971458554057
bond_coeff 331 harmonic 10.0 6.699056610881864
bond_coeff 332 harmonic 10.0 7.082749447453298
bond_coeff 333 harmonic 10.0 3.978977899938626
bond_coeff 334 harmonic 10.0 5.5049596297968435
bond_coeff 335 harmonic 10.0 5.172994817572892
bond_coeff 336 harmonic 10.0 6.464805926166693
bond_coeff 337 harmonic 10.0 7.135343097610374
bond_coeff 338 harmonic 10.0 5.2612228850497065
bond_coeff 339 harmonic 10.0 5.383206164303945
bond_coeff 340 harmonic 10.0 6.12952430096333
bond_coeff 341 harmonic 10.0 3.6723225406945126
bond_coeff 342 harmonic 10.0 5.2686690929186275
bond_coeff 343 harmonic 10.0 4.889624703062598
bond_coeff 344 harmonic 10.0 6.4370160868604325
bond_coeff 345 harmonic 10.0 6.448873616257029
bond_coeff 346 harmonic 10.0 6.330197779643224
bond_coeff 347 harmonic 10.0 3.782240561170719
bond_coeff 348 harmonic 10.0 5.335985085246491
bond_coeff 349 harmonic 10.0 5.237974338496992
bond_coeff 350 harmonic 10.0 6.58091422714542
bond_coeff 351 harmonic 10.0 3.8589360375777155
bond_coeff 352 harmonic 10.0 5.368086160558155
bond_coeff 353 harmonic 10.0 4.645549763709781
bond_coeff 354 harmonic 10.0 6.3820410805349725
bond_coeff 355 harmonic 10.0 5.480487877139659
bond_coeff 356 harmonic 10.0 6.857113668795057
bond_coeff 357 harmonic 10.0 7.354980617638363
bond_coeff 358 harmonic 10.0 3.766140724468485
bond_coeff 359 harmonic 10.0 4.984271441565356
bond_coeff 360 harmonic 10.0 4.5655848537071355
bond_coeff 361 harmonic 10.0 5.977630225005558
bond_coeff 362 harmonic 10.0 5.4222916284630065
bond_coeff 363 harmonic 10.0 6.712011107276269
bond_coeff 364 harmonic 10.0 6.913924477306647
bond_coeff 365 harmonic 10.0 5.905164864223183
bond_coeff 366 harmonic 10.0 6.13419743846469
bond_coeff 367 harmonic 10.0 3.9383881633714064
bond_coeff 368 harmonic 10.0 4.973996381673393
bond_coeff 369 harmonic 10.0 4.270572970808483
bond_coeff 370 harmonic 10.0 5.404156423587311
bond_coeff 371 harmonic 10.0 6.95502942276307
bond_coeff 372 harmonic 10.0 3.6619441993787945
bond_coeff 373 harmonic 10.0 5.470937973417721
bond_coeff 374 harmonic 10.0 7.189261287995033
bond_coeff 375 harmonic 10.0 7.436371975026801
bond_coeff 376 harmonic 10.0 5.982329577981557
bond_coeff 377 harmonic 10.0 7.170641087246244
bond_coeff 378 harmonic 10.0 7.398419652409831
bond_coeff 379 harmonic 10.0 3.9367493509366325
bond_coeff 380 harmonic 10.0 5.698361016476579
bond_coeff 381 harmonic 10.0 6.193775101147925
bond_coeff 382 harmonic 10.0 4.400986571080284
bond_coeff 383 harmonic 10.0 7.386122944508844
bond_coeff 384 harmonic 10.0 3.801451628049474
bond_coeff 385 harmonic 10.0 7.101795540826277
bond_coeff 386 harmonic 10.0 7.363427069849269
bond_coeff 387 harmonic 10.0 3.74129386513543
bond_coeff 388 harmonic 10.0 5.250254710754517
bond_coeff 389 harmonic 10.0 7.399054187507752
bond_coeff 390 harmonic 10.0 3.542877784979325
bond_coeff 391 harmonic 10.0 6.653828198862367
bond_coeff 392 harmonic 10.0 6.53514041571411
bond_coeff 393 harmonic 10.0 5.618122519756934
bond_coeff 394 harmonic 10.0 3.9505403409807114
bond_coeff 395 harmonic 10.0 6.85975860314348
bond_coeff 396 harmonic 10.0 7.032211833285458
bond_coeff 397 harmonic 10.0 4.455214594034724
bond_coeff 398 harmonic 10.0 5.232810816607075
bond_coeff 399 harmonic 10.0 6.182671272395129
bond_coeff 400 harmonic 10.0 3.5970672327618507
bond_coeff 401 harmonic 10.0 7.0632216817976206
bond_coeff 402 harmonic 10.0 6.867520162339966
bond_coeff 403 harmonic 10.0 6.775530770002892
bond_coeff 404 harmonic 10.0 5.2207655580112
bond_coeff 405 harmonic 10.0 5.530178058856333
bond_coeff 406 harmonic 10.0 3.897760040202706
bond_coeff 407 harmonic 10.0 5.388523371073841
bond_coeff 408 harmonic 10.0 6.057681901694455
bond_coeff 409 harmonic 10.0 7.278576388329038
bond_coeff 410 harmonic 10.0 7.080775564272674
bond_coeff 411 harmonic 10.0 5.485589165983998
bond_coeff 412 harmonic 10.0 6.610682643978684
bond_coeff 413 harmonic 10.0 6.06762627948459
bond_coeff 414 harmonic 10.0 3.5943406015852197
bond_coeff 415 harmonic 10.0 5.785561649306898
bond_coeff 416 harmonic 10.0 5.2836850714439825
bond_coeff 417 harmonic 10.0 6.809902965079606
bond_coeff 418 harmonic 10.0 6.669695073914549
bond_coeff 419 harmonic 10.0 5.894039149230432
bond_coeff 420 harmonic 10.0 6.261733956804616
bond_coeff 421 harmonic 10.0 3.9273069244693826
bond_coeff 422 harmonic 10.0 5.184132368634504
bond_coeff 423 harmonic 10.0 5.495201786126147
bond_coeff 424 harmonic 10.0 6.453216224684015
bond_coeff 425 harmonic 10.0 3.943499966493566
bond_coeff 426 harmonic 10.0 5.831431027689409
bond_coeff 427 harmonic 10.0 5.360003690784789
bond_coeff 428 harmonic 10.0 5.763295383403385
bond_coeff 429 harmonic 10.0 3.808857181439073
bond_coeff 430 harmonic 10.0 5.708081856979365
bond_coeff 431 harmonic 10.0 5.080773504999018
bond_coeff 432 harmonic 10.0 6.107868609212218
bond_coeff 433 harmonic 10.0 3.917218581498484
bond_coeff 434 harmonic 10.0 5.332160196327563
bond_coeff 435 harmonic 10.0 5.206650978604193
bond_coeff 436 harmonic 10.0 5.980070877723775
bond_coeff 437 harmonic 10.0 3.860618702992695
bond_coeff 438 harmonic 10.0 5.6546593675620285
bond_coeff 439 harmonic 10.0 5.0640804208816625
bond_coeff 440 harmonic 10.0 5.909627718866646
bond_coeff 441 harmonic 10.0 7.443378541432446
bond_coeff 442 harmonic 10.0 3.702011101563581
bond_coeff 443 harmonic 10.0 5.536823410232622
bond_coeff 444 harmonic 10.0 5.139953672874882
bond_coeff 445 harmonic 10.0 6.145691630776799
bond_coeff 446 harmonic 10.0 6.94649733969574
bond_coeff 447 harmonic 10.0 4.020705045088485
bond_coeff 448 harmonic 10.0 5.546316902864459
bond_coeff 449 harmonic 10.0 5.077095714963427
bond_coeff 450 harmonic 10.0 6.045796744482898
bond_coeff 451 harmonic 10.0 5.32099699618408
bond_coeff 452 harmonic 10.0 6.093360346163683
bond_coeff 453 harmonic 10.0 3.9826093601808354
bond_coeff 454 harmonic 10.0 5.655496913702633
bond_coeff 455 harmonic 10.0 4.85419943512831
bond_coeff 456 harmonic 10.0 5.718267953270465
bond_coeff 457 harmonic 10.0 4.94044655518102
bond_coeff 458 harmonic 10.0 6.987766957369142
bond_coeff 459 harmonic 10.0 3.9379207007124966
bond_coeff 460 harmonic 10.0 5.291740200217695
bond_coeff 461 harmonic 10.0 6.460474587249763
bond_coeff 462 harmonic 10.0 5.9574279294766965
bond_coeff 463 harmonic 10.0 6.112817698974835
bond_coeff 464 harmonic 10.0 5.987341722229408
bond_coeff 465 harmonic 10.0 3.8695513686860394
bond_coeff 466 harmonic 10.0 5.771661105323146
bond_coeff 467 harmonic 10.0 5.361569122169367
bond_coeff 468 harmonic 10.0 4.792177021871061
bond_coeff 469 harmonic 10.0 7.156768834418225
bond_coeff 470 harmonic 10.0 3.617720907007614
bond_coeff 471 harmonic 10.0 5.2623826930583455
bond_coeff 472 harmonic 10.0 7.005951734097231
bond_coeff 473 harmonic 10.0 7.461616668717913
bond_coeff 474 harmonic 10.0 3.461351345558552
bond_coeff 475 harmonic 10.0 6.676911305633766
bond_coeff 476 harmonic 10.0 3.9785259234419974
bond_coeff 477 harmonic 10.0 6.781411193881405
bond_coeff 478 harmonic 10.0 5.280121835043203
bond_coeff 479 harmonic 10.0 6.960706508861008
bond_coeff 480 harmonic 10.0 3.709414091794012
bond_coeff 481 harmonic 10.0 5.403705832704072
bond_coeff 482 harmonic 10.0 5.836082642800734
bond_coeff 483 harmonic 10.0 6.176925205148592
bond_coeff 484 harmonic 10.0 7.263773753359888
bond_coeff 485 harmonic 10.0 3.7371782204759785
bond_coeff 486 harmonic 10.0 5.617839715798236
bond_coeff 487 harmonic 10.0 7.245842672484685
bond_coeff 488 harmonic 10.0 4.192563133645098
bond_coeff 489 harmonic 10.0 6.079526048048484
bond_coeff 490 harmonic 10.0 3.8352405095508666
bond_coeff 491 harmonic 10.0 6.912182905023563
bond_coeff 492 harmonic 10.0 7.096780360388786
bond_coeff 493 harmonic 10.0 3.6412513614964843
bond_coeff 494 harmonic 10.0 6.084249399893138
bond_coeff 495 harmonic 10.0 5.608845924929655
bond_coeff 496 harmonic 10.0 6.425142843462703
bond_coeff 497 harmonic 10.0 3.7889572936231413
bond_coeff 498 harmonic 10.0 5.292730610412738
bond_coeff 499 harmonic 10.0 5.09632841513378
bond_coeff 500 harmonic 10.0 6.443092374388247
bond_coeff 501 harmonic 10.0 6.299288364728194
bond_coeff 502 harmonic 10.0 3.8962860293489765
bond_coeff 503 harmonic 10.0 5.438205936299214
bond_coeff 504 harmonic 10.0 5.032558646016955
bond_coeff 505 harmonic 10.0 6.3055355361459995
bond_coeff 506 harmonic 10.0 3.9428583776367105
bond_coeff 507 harmonic 10.0 5.550375107693172
bond_coeff 508 harmonic 10.0 5.168771764945711
bond_coeff 509 harmonic 10.0 6.099918808049826
bond_coeff 510 harmonic 10.0 3.8669085714560145
bond_coeff 511 harmonic 10.0 5.496826471701649
bond_coeff 512 harmonic 10.0 4.567939983460817
bond_coeff 513 harmonic 10.0 6.0398717789453125
bond_coeff 514 harmonic 10.0 7.171671865701889
bond_coeff 515 harmonic 10.0 3.8983307171146984
bond_coeff 516 harmonic 10.0 5.287300216414802
bond_coeff 517 harmonic 10.0 5.162027073747289
bond_coeff 518 harmonic 10.0 6.00825717487193
bond_coeff 519 harmonic 10.0 4.083625701812056
bond_coeff 520 harmonic 10.0 5.629981916853731
bond_coeff 521 harmonic 10.0 4.817997393668868
bond_coeff 522 harmonic 10.0 5.884002067479242
bond_coeff 523 harmonic 10.0 3.6754739240810848
bond_coeff 524 harmonic 10.0 5.454868480715187
bond_coeff 525 harmonic 10.0 4.741052481358965
bond_coeff 526 harmonic 10.0 6.208376443918328
bond_coeff 527 harmonic 10.0 3.951190950194637
bond_coeff 528 harmonic 10.0 4.968671470866232
bond_coeff 529 harmonic 10.0 4.460647870455591
bond_coeff 530 harmonic 10.0 6.578584732250547
bond_coeff 531 harmonic 10.0 5.441971958499969
bond_coeff 532 harmonic 10.0 3.7925462602979545
bond_coeff 533 harmonic 10.0 5.139746003811861
bond_coeff 534 harmonic 10.0 5.178244717826687
bond_coeff 535 harmonic 10.0 5.02149597580243
bond_coeff 536 harmonic 10.0 6.672182772713889
bond_coeff 537 harmonic 10.0 3.7964371835709336
bond_coeff 538 harmonic 10.0 5.604897621223781
bond_coeff 539 harmonic 10.0 7.441092883313581
bond_coeff 540 harmonic 10.0 7.000154082344142
bond_coeff 541 harmonic 10.0 3.8875904986508036
bond_coeff 542 harmonic 10.0 5.686276649627594
bond_coeff 543 harmonic 10.0 4.081424672697024
bond_coeff 544 harmonic 10.0 6.44626621418942
bond_coeff 545 harmonic 10.0 6.82061002621789
bond_coeff 546 harmonic 10.0 5.166666068172009
bond_coeff 547 harmonic 10.0 7.496238139420598
bond_coeff 548 harmonic 10.0 3.6532855737678105
bond_coeff 549 harmonic 10.0 5.975137851882582
bond_coeff 550 harmonic 10.0 6.900942387246832
bond_coeff 551 harmonic 10.0 3.834334545458965
bond_coeff 552 harmonic 10.0 6.673344049500222
bond_coeff 553 harmonic 10.0 3.8913973132153954
bond_coeff 554 harmonic 10.0 6.76308165650837
bond_coeff 555 harmonic 10.0 3.6326711269395138
bond_coeff 556 harmonic 10.0 6.6319241769052955
bond_coeff 557 harmonic 10.0 7.098110571098551
bond_coeff 558 harmonic 10.0 4.1932145419356965
bond_coeff 559 harmonic 10.0 5.503514304042463
bond_coeff 560 harmonic 10.0 5.855196805934109
bond_coeff 561 harmonic 10.0 3.8348552310173325
bond_coeff 562 harmonic 10.0 5.490608559686256
bond_coeff 563 harmonic 10.0 6.895636281433425
bond_coeff 564 harmonic 10.0 3.830154750865948
bond_coeff 565 harmonic 10.0 5.977027009684663
bond_coeff 566 harmonic 10.0 6.594198651481467
bond_coeff 567 harmonic 10.0 6.7479343346241905
bond_coeff 568 harmonic 10.0 4.110391165076749
bond_coeff 569 harmonic 10.0 6.0574671969777105
bond_coeff 570 harmonic 10.0 5.262191748579769
bond_coeff 571 harmonic 10.0 5.913726938273445
bond_coeff 572 harmonic 10.0 3.776308040944224
bond_coeff 573 harmonic 10.0 5.342366785021411
bond_coeff 574 harmonic 10.0 4.993571896348344
bond_coeff 575 harmonic 10.0 6.305934112001171
bond_coeff 576 harmonic 10.0 3.7200824740857574
bond_coeff 577 harmonic 10.0 5.31126491063099
bond_coeff 578 harmonic 10.0 5.240635492762305
bond_coeff 579 harmonic 10.0 6.302835527927094
bond_coeff 580 harmonic 10.0 3.7585128011621824
bond_coeff 581 harmonic 10.0 5.347424037908346
bond_coeff 582 harmonic 10.0 5.047575887106601
bond_coeff 583 harmonic 10.0 6.403079259707785
bond_coeff 584 harmonic 10.0 3.566808173437422
bond_coeff 585 harmonic 10.0 5.196816887307075
bond_coeff 586 harmonic 10.0 5.168832984610743
bond_coeff 587 harmonic 10.0 5.915697296726735
bond_coeff 588 harmonic 10.0 3.6243172221123263
bond_coeff 589 harmonic 10.0 5.547611976454374
bond_coeff 590 harmonic 10.0 5.003524866071918
bond_coeff 591 harmonic 10.0 6.1361294127487245
bond_coeff 592 harmonic 10.0 4.068701551232284
bond_coeff 593 harmonic 10.0 5.527585080240737
bond_coeff 594 harmonic 10.0 5.454949269140824
bond_coeff 595 harmonic 10.0 6.905923841601498
bond_coeff 596 harmonic 10.0 3.8227442654328834
bond_coeff 597 harmonic 10.0 5.602216998448025
bond_coeff 598 harmonic 10.0 5.694495301903409
bond_coeff 599 harmonic 10.0 6.562459771952966
bond_coeff 600 harmonic 10.0 3.7577794468276076
bond_coeff 601 harmonic 10.0 5.779707446930165
bond_coeff 602 harmonic 10.0 5.119147994276098
bond_coeff 603 harmonic 10.0 6.231924811877947
bond_coeff 604 harmonic 10.0 3.9134060933795265
bond_coeff 605 harmonic 10.0 4.9845858913977
bond_coeff 606 harmonic 10.0 5.194635166563673
bond_coeff 607 harmonic 10.0 5.857813558624071
bond_coeff 608 harmonic 10.0 3.776670730339223
bond_coeff 609 harmonic 10.0 5.98623400072199
bond_coeff 610 harmonic 10.0 5.309599919212369